NAME : XML100_3373_15
DIMENSION : 101
NB_CLUSTERS : 4
CLUSTERING_ALG : KMedoids
CLUSTERING_PARAMS : k(3)
CLUSTERS
1 0
2 1 2 3 4 9 10 11 13 17 21 23 26 28 33 34 36 37 39 45 47 51 54 63 64 67 68 70 71 72 73 75 81 87 88 92 96 97 98
3 5 7 15 16 22 24 25 29 30 38 40 42 43 44 46 52 53 55 56 57 65 66 77 79 82 84 85 91 94 100
4 6 8 12 14 18 19 20 27 31 32 35 41 48 49 50 58 59 60 61 62 69 74 76 78 80 83 86 89 90 93 95 99
EOF